mlkem-native/cvc5/fqmul_harness.smt2
; SMT 2
; Generated for CVC 5
(set-info :source "Generated by CBMC 6.8.0 (n/a)")
(set-logic ALL)

; find_symbols
(declare-fun |harness::1::a!0@1#1| () (_ BitVec 16))
; set_to true (equal)
(define-fun |mlk_fqmul::a_wrapper!0@1#1| () (_ BitVec 16) |harness::1::a!0@1#1|)

; find_symbols
(declare-fun |harness::1::b!0@1#1| () (_ BitVec 16))
; set_to true (equal)
(define-fun |mlk_fqmul::b_wrapper!0@1#1| () (_ BitVec 16) |harness::1::b!0@1#1|)

; set_to true (equal)
(define-fun |mlk_fqmul::a!0@1#1| () (_ BitVec 16) |mlk_fqmul::a_wrapper!0@1#1|)

; set_to true (equal)
(define-fun |mlk_fqmul::b!0@1#1| () (_ BitVec 16) |mlk_fqmul::b_wrapper!0@1#1|)

; set_to true (equal)
(define-fun |mlk_montgomery_reduce::a!0@1#1| () (_ BitVec 32) (bvmul ((_ sign_extend 16) |mlk_fqmul::a!0@1#1|) ((_ sign_extend 16) |mlk_fqmul::b!0@1#1|)))

; set_to true (equal)
(define-fun |mlk_cast_int32_to_uint16::x!0@1#1| () (_ BitVec 32) |mlk_montgomery_reduce::a!0@1#1|)

; set_to true (equal)
(define-fun |goto_symex::return_value::mlk_cast_int32_to_uint16!0#1| () (_ BitVec 16) ((_ extract 15 0) |mlk_cast_int32_to_uint16::x!0@1#1|))

; set_to true (equal)
(define-fun |mlk_montgomery_reduce::$tmp::return_value_mlk_cast_int32_to_uint16!0@1#2| () (_ BitVec 16) |goto_symex::return_value::mlk_cast_int32_to_uint16!0#1|)

; set_to true (equal)
(define-fun |mlk_montgomery_reduce::1::a_reduced!0@1#2| () (_ BitVec 16) |mlk_montgomery_reduce::$tmp::return_value_mlk_cast_int32_to_uint16!0@1#2|)

; set_to true (equal)
(define-fun |mlk_montgomery_reduce::1::a_inverted!0@1#2| () (_ BitVec 16) (bvmul |mlk_montgomery_reduce::1::a_reduced!0@1#2| (_ bv62209 16)))

; set_to true (equal)
(define-fun |mlk_cast_uint16_to_int16::x!0@1#1| () (_ BitVec 16) |mlk_montgomery_reduce::1::a_inverted!0@1#2|)

; set_to true (equal)
(define-fun |goto_symex::return_value::mlk_cast_uint16_to_int16!0#1| () (_ BitVec 16) |mlk_cast_uint16_to_int16::x!0@1#1|)

; set_to true (equal)
(define-fun |mlk_montgomery_reduce::$tmp::return_value_mlk_cast_uint16_to_int16!0@1#2| () (_ BitVec 16) |goto_symex::return_value::mlk_cast_uint16_to_int16!0#1|)

; set_to true (equal)
(define-fun |mlk_montgomery_reduce::1::t!0@1#2| () (_ BitVec 16) |mlk_montgomery_reduce::$tmp::return_value_mlk_cast_uint16_to_int16!0@1#2|)

; set_to true (equal)
(define-fun |mlk_montgomery_reduce::1::r!0@1#2| () (_ BitVec 32) (bvadd |mlk_montgomery_reduce::a!0@1#1| (bvneg (bvmul ((_ sign_extend 16) |mlk_montgomery_reduce::1::t!0@1#2|) (_ bv3329 32)))))

; set_to true (equal)
(define-fun |mlk_montgomery_reduce::1::r!0@1#3| () (_ BitVec 32) (bvashr |mlk_montgomery_reduce::1::r!0@1#2| (_ bv16 32)))

; set_to true (equal)
(define-fun |goto_symex::return_value::mlk_montgomery_reduce!0#1| () (_ BitVec 16) ((_ extract 15 0) |mlk_montgomery_reduce::1::r!0@1#3|))

; set_to true (equal)
(define-fun |mlk_fqmul::1::res!0@1#2| () (_ BitVec 16) |goto_symex::return_value::mlk_montgomery_reduce!0#1|)

; set_to true (equal)
(define-fun |goto_symex::return_value::mlk_fqmul_wrapped_for_contract_checking!0#1| () (_ BitVec 16) |mlk_fqmul::1::res!0@1#2|)

; set_to true (equal)
(define-fun |mlk_fqmul::__contract_return_value!0@1#2| () (_ BitVec 16) |goto_symex::return_value::mlk_fqmul_wrapped_for_contract_checking!0#1|)

; convert
; Converting var_no 0 with expr ID of =
(define-fun B0 () Bool (= |harness::1::a!0@1#1| |harness::1::a!0@1#1|))

; convert
; Converting var_no 1 with expr ID of =
(define-fun B1 () Bool (= |harness::1::a!0@1#1| |harness::1::a!0@1#1|))

; convert
; Converting var_no 2 with expr ID of =
(define-fun B2 () Bool (= |harness::1::b!0@1#1| |harness::1::b!0@1#1|))

; convert
; Converting var_no 3 with expr ID of =
(define-fun B3 () Bool (= |harness::1::b!0@1#1| |harness::1::b!0@1#1|))

; find_symbols
(declare-fun |mlk_fqmul::1::1::_cbmc_idx10!0@1#1| () (_ BitVec 32))
; convert
; Converting var_no 4 with expr ID of =
(define-fun B4 () Bool (= |mlk_fqmul::1::1::_cbmc_idx10!0@1#1| |mlk_fqmul::1::1::_cbmc_idx10!0@1#1|))

; convert
; Converting var_no 5 with expr ID of =
(define-fun B5 () Bool (= |mlk_fqmul::1::1::_cbmc_idx10!0@1#1| |mlk_fqmul::1::1::_cbmc_idx10!0@1#1|))

; find_symbols
(declare-fun |mlk_fqmul::1::2::_cbmc_idx11!0@1#1| () (_ BitVec 32))
; convert
; Converting var_no 6 with expr ID of =
(define-fun B6 () Bool (= |mlk_fqmul::1::2::_cbmc_idx11!0@1#1| |mlk_fqmul::1::2::_cbmc_idx11!0@1#1|))

; convert
; Converting var_no 7 with expr ID of =
(define-fun B7 () Bool (= |mlk_fqmul::1::2::_cbmc_idx11!0@1#1| |mlk_fqmul::1::2::_cbmc_idx11!0@1#1|))

; convert
; Converting var_no 8 with expr ID of and
(define-fun B8 () Bool (and (bvsge ((_ sign_extend 16) |mlk_fqmul::b_wrapper!0@1#1|) (_ bv4294965632 32)) (not (bvsge ((_ sign_extend 16) |mlk_fqmul::b_wrapper!0@1#1|) (_ bv1665 32)))))

; find_symbols
(declare-fun |symex::args::0| () (_ BitVec 16))
; set_to true
(assert (= |harness::1::a!0@1#1| |symex::args::0|))

; find_symbols
(declare-fun |symex::args::1| () (_ BitVec 16))
; set_to true
(assert (= |harness::1::b!0@1#1| |symex::args::1|))

(declare-datatypes ((struct.2 0)) (((mk-struct.2 (struct.2.is_writable (_ BitVec 8)) (struct.2.$pad1 (_ BitVec 56)) (struct.2.size (_ BitVec 64)) (struct.2.lb (_ BitVec 64)) (struct.2.ub (_ BitVec 64)) ))))
(define-fun update-struct.2.is_writable ((s struct.2) (v (_ BitVec 8))) struct.2 (mk-struct.2 v (struct.2.$pad1 s) (struct.2.size s) (struct.2.lb s) (struct.2.ub s) ))
(define-fun update-struct.2.$pad1 ((s struct.2) (v (_ BitVec 56))) struct.2 (mk-struct.2 (struct.2.is_writable s) v (struct.2.size s) (struct.2.lb s) (struct.2.ub s) ))
(define-fun update-struct.2.size ((s struct.2) (v (_ BitVec 64))) struct.2 (mk-struct.2 (struct.2.is_writable s) (struct.2.$pad1 s) v (struct.2.lb s) (struct.2.ub s) ))
(define-fun update-struct.2.lb ((s struct.2) (v (_ BitVec 64))) struct.2 (mk-struct.2 (struct.2.is_writable s) (struct.2.$pad1 s) (struct.2.size s) v (struct.2.ub s) ))
(define-fun update-struct.2.ub ((s struct.2) (v (_ BitVec 64))) struct.2 (mk-struct.2 (struct.2.is_writable s) (struct.2.$pad1 s) (struct.2.size s) (struct.2.lb s) v ))

(declare-datatypes ((struct.1 0)) (((mk-struct.1 (struct.1.max_elems (_ BitVec 64)) (struct.1.elems (_ BitVec 64)) ))))
(define-fun update-struct.1.max_elems ((s struct.1) (v (_ BitVec 64))) struct.1 (mk-struct.1 v (struct.1.elems s) ))
(define-fun update-struct.1.elems ((s struct.1) (v (_ BitVec 64))) struct.1 (mk-struct.1 (struct.1.max_elems s) v ))

(declare-datatypes ((struct.5 0)) (((mk-struct.5 (struct.5.max_elems (_ BitVec 64)) (struct.5.watermark (_ BitVec 64)) (struct.5.nof_elems (_ BitVec 64)) (struct.5.is_empty (_ BitVec 8)) (struct.5.indexed_by_object_id (_ BitVec 8)) (struct.5.$pad5 (_ BitVec 48)) (struct.5.elems (_ BitVec 64)) ))))
(define-fun update-struct.5.max_elems ((s struct.5) (v (_ BitVec 64))) struct.5 (mk-struct.5 v (struct.5.watermark s) (struct.5.nof_elems s) (struct.5.is_empty s) (struct.5.indexed_by_object_id s) (struct.5.$pad5 s) (struct.5.elems s) ))
(define-fun update-struct.5.watermark ((s struct.5) (v (_ BitVec 64))) struct.5 (mk-struct.5 (struct.5.max_elems s) v (struct.5.nof_elems s) (struct.5.is_empty s) (struct.5.indexed_by_object_id s) (struct.5.$pad5 s) (struct.5.elems s) ))
(define-fun update-struct.5.nof_elems ((s struct.5) (v (_ BitVec 64))) struct.5 (mk-struct.5 (struct.5.max_elems s) (struct.5.watermark s) v (struct.5.is_empty s) (struct.5.indexed_by_object_id s) (struct.5.$pad5 s) (struct.5.elems s) ))
(define-fun update-struct.5.is_empty ((s struct.5) (v (_ BitVec 8))) struct.5 (mk-struct.5 (struct.5.max_elems s) (struct.5.watermark s) (struct.5.nof_elems s) v (struct.5.indexed_by_object_id s) (struct.5.$pad5 s) (struct.5.elems s) ))
(define-fun update-struct.5.indexed_by_object_id ((s struct.5) (v (_ BitVec 8))) struct.5 (mk-struct.5 (struct.5.max_elems s) (struct.5.watermark s) (struct.5.nof_elems s) (struct.5.is_empty s) v (struct.5.$pad5 s) (struct.5.elems s) ))
(define-fun update-struct.5.$pad5 ((s struct.5) (v (_ BitVec 48))) struct.5 (mk-struct.5 (struct.5.max_elems s) (struct.5.watermark s) (struct.5.nof_elems s) (struct.5.is_empty s) (struct.5.indexed_by_object_id s) v (struct.5.elems s) ))
(define-fun update-struct.5.elems ((s struct.5) (v (_ BitVec 64))) struct.5 (mk-struct.5 (struct.5.max_elems s) (struct.5.watermark s) (struct.5.nof_elems s) (struct.5.is_empty s) (struct.5.indexed_by_object_id s) (struct.5.$pad5 s) v ))

(declare-datatypes ((struct.7 0)) (((mk-struct.7 (struct.7.fresh_car struct.2) (struct.7.ptr_pred (_ BitVec 64)) ))))
(define-fun update-struct.7.fresh_car ((s struct.7) (v struct.2)) struct.7 (mk-struct.7 v (struct.7.ptr_pred s) ))
(define-fun update-struct.7.ptr_pred ((s struct.7) (v (_ BitVec 64))) struct.7 (mk-struct.7 (struct.7.fresh_car s) v ))

(declare-datatypes ((struct.0 0)) (((mk-struct.0 (struct.0.contract_assigns struct.1) (struct.0.contract_frees struct.5) (struct.0.contract_frees_append struct.5) (struct.0.allocated struct.5) (struct.0.deallocated struct.5) (struct.0.linked_ptr_pred_ctx (_ BitVec 64)) (struct.0.linked_allocated (_ BitVec 64)) (struct.0.linked_deallocated (_ BitVec 64)) (struct.0.assume_requires_ctx (_ BitVec 8)) (struct.0.assert_requires_ctx (_ BitVec 8)) (struct.0.assume_ensures_ctx (_ BitVec 8)) (struct.0.assert_ensures_ctx (_ BitVec 8)) (struct.0.allow_allocate (_ BitVec 8)) (struct.0.allow_deallocate (_ BitVec 8)) (struct.0.$pad14 (_ BitVec 16)) ))))
(define-fun update-struct.0.contract_assigns ((s struct.0) (v struct.1)) struct.0 (mk-struct.0 v (struct.0.contract_frees s) (struct.0.contract_frees_append s) (struct.0.allocated s) (struct.0.deallocated s) (struct.0.linked_ptr_pred_ctx s) (struct.0.linked_allocated s) (struct.0.linked_deallocated s) (struct.0.assume_requires_ctx s) (struct.0.assert_requires_ctx s) (struct.0.assume_ensures_ctx s) (struct.0.assert_ensures_ctx s) (struct.0.allow_allocate s) (struct.0.allow_deallocate s) (struct.0.$pad14 s) ))
(define-fun update-struct.0.contract_frees ((s struct.0) (v struct.5)) struct.0 (mk-struct.0 (struct.0.contract_assigns s) v (struct.0.contract_frees_append s) (struct.0.allocated s) (struct.0.deallocated s) (struct.0.linked_ptr_pred_ctx s) (struct.0.linked_allocated s) (struct.0.linked_deallocated s) (struct.0.assume_requires_ctx s) (struct.0.assert_requires_ctx s) (struct.0.assume_ensures_ctx s) (struct.0.assert_ensures_ctx s) (struct.0.allow_allocate s) (struct.0.allow_deallocate s) (struct.0.$pad14 s) ))
(define-fun update-struct.0.contract_frees_append ((s struct.0) (v struct.5)) struct.0 (mk-struct.0 (struct.0.contract_assigns s) (struct.0.contract_frees s) v (struct.0.allocated s) (struct.0.deallocated s) (struct.0.linked_ptr_pred_ctx s) (struct.0.linked_allocated s) (struct.0.linked_deallocated s) (struct.0.assume_requires_ctx s) (struct.0.assert_requires_ctx s) (struct.0.assume_ensures_ctx s) (struct.0.assert_ensures_ctx s) (struct.0.allow_allocate s) (struct.0.allow_deallocate s) (struct.0.$pad14 s) ))
(define-fun update-struct.0.allocated ((s struct.0) (v struct.5)) struct.0 (mk-struct.0 (struct.0.contract_assigns s) (struct.0.contract_frees s) (struct.0.contract_frees_append s) v (struct.0.deallocated s) (struct.0.linked_ptr_pred_ctx s) (struct.0.linked_allocated s) (struct.0.linked_deallocated s) (struct.0.assume_requires_ctx s) (struct.0.assert_requires_ctx s) (struct.0.assume_ensures_ctx s) (struct.0.assert_ensures_ctx s) (struct.0.allow_allocate s) (struct.0.allow_deallocate s) (struct.0.$pad14 s) ))
(define-fun update-struct.0.deallocated ((s struct.0) (v struct.5)) struct.0 (mk-struct.0 (struct.0.contract_assigns s) (struct.0.contract_frees s) (struct.0.contract_frees_append s) (struct.0.allocated s) v (struct.0.linked_ptr_pred_ctx s) (struct.0.linked_allocated s) (struct.0.linked_deallocated s) (struct.0.assume_requires_ctx s) (struct.0.assert_requires_ctx s) (struct.0.assume_ensures_ctx s) (struct.0.assert_ensures_ctx s) (struct.0.allow_allocate s) (struct.0.allow_deallocate s) (struct.0.$pad14 s) ))
(define-fun update-struct.0.linked_ptr_pred_ctx ((s struct.0) (v (_ BitVec 64))) struct.0 (mk-struct.0 (struct.0.contract_assigns s) (struct.0.contract_frees s) (struct.0.contract_frees_append s) (struct.0.allocated s) (struct.0.deallocated s) v (struct.0.linked_allocated s) (struct.0.linked_deallocated s) (struct.0.assume_requires_ctx s) (struct.0.assert_requires_ctx s) (struct.0.assume_ensures_ctx s) (struct.0.assert_ensures_ctx s) (struct.0.allow_allocate s) (struct.0.allow_deallocate s) (struct.0.$pad14 s) ))
(define-fun update-struct.0.linked_allocated ((s struct.0) (v (_ BitVec 64))) struct.0 (mk-struct.0 (struct.0.contract_assigns s) (struct.0.contract_frees s) (struct.0.contract_frees_append s) (struct.0.allocated s) (struct.0.deallocated s) (struct.0.linked_ptr_pred_ctx s) v (struct.0.linked_deallocated s) (struct.0.assume_requires_ctx s) (struct.0.assert_requires_ctx s) (struct.0.assume_ensures_ctx s) (struct.0.assert_ensures_ctx s) (struct.0.allow_allocate s) (struct.0.allow_deallocate s) (struct.0.$pad14 s) ))
(define-fun update-struct.0.linked_deallocated ((s struct.0) (v (_ BitVec 64))) struct.0 (mk-struct.0 (struct.0.contract_assigns s) (struct.0.contract_frees s) (struct.0.contract_frees_append s) (struct.0.allocated s) (struct.0.deallocated s) (struct.0.linked_ptr_pred_ctx s) (struct.0.linked_allocated s) v (struct.0.assume_requires_ctx s) (struct.0.assert_requires_ctx s) (struct.0.assume_ensures_ctx s) (struct.0.assert_ensures_ctx s) (struct.0.allow_allocate s) (struct.0.allow_deallocate s) (struct.0.$pad14 s) ))
(define-fun update-struct.0.assume_requires_ctx ((s struct.0) (v (_ BitVec 8))) struct.0 (mk-struct.0 (struct.0.contract_assigns s) (struct.0.contract_frees s) (struct.0.contract_frees_append s) (struct.0.allocated s) (struct.0.deallocated s) (struct.0.linked_ptr_pred_ctx s) (struct.0.linked_allocated s) (struct.0.linked_deallocated s) v (struct.0.assert_requires_ctx s) (struct.0.assume_ensures_ctx s) (struct.0.assert_ensures_ctx s) (struct.0.allow_allocate s) (struct.0.allow_deallocate s) (struct.0.$pad14 s) ))
(define-fun update-struct.0.assert_requires_ctx ((s struct.0) (v (_ BitVec 8))) struct.0 (mk-struct.0 (struct.0.contract_assigns s) (struct.0.contract_frees s) (struct.0.contract_frees_append s) (struct.0.allocated s) (struct.0.deallocated s) (struct.0.linked_ptr_pred_ctx s) (struct.0.linked_allocated s) (struct.0.linked_deallocated s) (struct.0.assume_requires_ctx s) v (struct.0.assume_ensures_ctx s) (struct.0.assert_ensures_ctx s) (struct.0.allow_allocate s) (struct.0.allow_deallocate s) (struct.0.$pad14 s) ))
(define-fun update-struct.0.assume_ensures_ctx ((s struct.0) (v (_ BitVec 8))) struct.0 (mk-struct.0 (struct.0.contract_assigns s) (struct.0.contract_frees s) (struct.0.contract_frees_append s) (struct.0.allocated s) (struct.0.deallocated s) (struct.0.linked_ptr_pred_ctx s) (struct.0.linked_allocated s) (struct.0.linked_deallocated s) (struct.0.assume_requires_ctx s) (struct.0.assert_requires_ctx s) v (struct.0.assert_ensures_ctx s) (struct.0.allow_allocate s) (struct.0.allow_deallocate s) (struct.0.$pad14 s) ))
(define-fun update-struct.0.assert_ensures_ctx ((s struct.0) (v (_ BitVec 8))) struct.0 (mk-struct.0 (struct.0.contract_assigns s) (struct.0.contract_frees s) (struct.0.contract_frees_append s) (struct.0.allocated s) (struct.0.deallocated s) (struct.0.linked_ptr_pred_ctx s) (struct.0.linked_allocated s) (struct.0.linked_deallocated s) (struct.0.assume_requires_ctx s) (struct.0.assert_requires_ctx s) (struct.0.assume_ensures_ctx s) v (struct.0.allow_allocate s) (struct.0.allow_deallocate s) (struct.0.$pad14 s) ))
(define-fun update-struct.0.allow_allocate ((s struct.0) (v (_ BitVec 8))) struct.0 (mk-struct.0 (struct.0.contract_assigns s) (struct.0.contract_frees s) (struct.0.contract_frees_append s) (struct.0.allocated s) (struct.0.deallocated s) (struct.0.linked_ptr_pred_ctx s) (struct.0.linked_allocated s) (struct.0.linked_deallocated s) (struct.0.assume_requires_ctx s) (struct.0.assert_requires_ctx s) (struct.0.assume_ensures_ctx s) (struct.0.assert_ensures_ctx s) v (struct.0.allow_deallocate s) (struct.0.$pad14 s) ))
(define-fun update-struct.0.allow_deallocate ((s struct.0) (v (_ BitVec 8))) struct.0 (mk-struct.0 (struct.0.contract_assigns s) (struct.0.contract_frees s) (struct.0.contract_frees_append s) (struct.0.allocated s) (struct.0.deallocated s) (struct.0.linked_ptr_pred_ctx s) (struct.0.linked_allocated s) (struct.0.linked_deallocated s) (struct.0.assume_requires_ctx s) (struct.0.assert_requires_ctx s) (struct.0.assume_ensures_ctx s) (struct.0.assert_ensures_ctx s) (struct.0.allow_allocate s) v (struct.0.$pad14 s) ))
(define-fun update-struct.0.$pad14 ((s struct.0) (v (_ BitVec 16))) struct.0 (mk-struct.0 (struct.0.contract_assigns s) (struct.0.contract_frees s) (struct.0.contract_frees_append s) (struct.0.allocated s) (struct.0.deallocated s) (struct.0.linked_ptr_pred_ctx s) (struct.0.linked_allocated s) (struct.0.linked_deallocated s) (struct.0.assume_requires_ctx s) (struct.0.assert_requires_ctx s) (struct.0.assume_ensures_ctx s) (struct.0.assert_ensures_ctx s) (struct.0.allow_allocate s) (struct.0.allow_deallocate s) v ))

; find_symbols
(declare-fun |mlk_fqmul::__requires_write_set!0@1| () struct.0)
; find_symbols
(declare-fun |symex::args::2| () (_ BitVec 64))
; set_to true
(assert (= (concat (_ bv2 8) (_ bv0 56)) |symex::args::2|))

; find_symbols
(declare-fun |mlk_fqmul::__ensures_write_set!0@1| () struct.0)
; find_symbols
(declare-fun |symex::args::3| () (_ BitVec 64))
; set_to true
(assert (= (concat (_ bv3 8) (_ bv0 56)) |symex::args::3|))

; find_symbols
(declare-fun |mlk_fqmul::__ptr_pred_ctx!0@1| () struct.7)
; find_symbols
(declare-fun |symex::args::4| () (_ BitVec 64))
; set_to true
(assert (= (concat (_ bv4 8) (_ bv0 56)) |symex::args::4|))

; find_symbols
(declare-fun |symex::args::5| () (_ BitVec 64))
; set_to true
(assert (= (concat (_ bv2 8) (_ bv0 56)) |symex::args::5|))

; find_symbols
(declare-fun |symex::args::6| () (_ BitVec 64))
; set_to true
(assert (= (concat (_ bv4 8) (_ bv0 56)) |symex::args::6|))

; find_symbols
(declare-fun |symex::args::7| () (_ BitVec 64))
; set_to true
(assert (= (concat (_ bv3 8) (_ bv0 56)) |symex::args::7|))

; find_symbols
(declare-fun |symex::args::8| () (_ BitVec 64))
; set_to true
(assert (= (concat (_ bv4 8) (_ bv0 56)) |symex::args::8|))

; find_symbols
(declare-fun |mlk_fqmul::__contract_write_set!0@1| () struct.0)
; find_symbols
(declare-fun |symex::args::9| () (_ BitVec 64))
; set_to true
(assert (= (concat (_ bv5 8) (_ bv0 56)) |symex::args::9|))

; find_symbols
(declare-fun |symex::args::10| () (_ BitVec 16))
; set_to true
(assert (= |mlk_fqmul::a_wrapper!0@1#1| |symex::args::10|))

; find_symbols
(declare-fun |symex::args::11| () (_ BitVec 16))
; set_to true
(assert (= |mlk_fqmul::b_wrapper!0@1#1| |symex::args::11|))

; find_symbols
(declare-fun |symex::args::12| () (_ BitVec 64))
; set_to true
(assert (= (concat (_ bv5 8) (_ bv0 56)) |symex::args::12|))

; find_symbols
(declare-fun |symex::args::13| () (_ BitVec 64))
; set_to true
(assert (= (concat (_ bv2 8) (_ bv0 56)) |symex::args::13|))

; find_symbols
(declare-fun |symex::args::14| () (_ BitVec 16))
; set_to true
(assert (= |mlk_fqmul::a_wrapper!0@1#1| |symex::args::14|))

; find_symbols
(declare-fun |symex::args::15| () (_ BitVec 16))
; set_to true
(assert (= |mlk_fqmul::b_wrapper!0@1#1| |symex::args::15|))

; find_symbols
(declare-fun |symex::args::16| () (_ BitVec 64))
; set_to true
(assert (= (concat (_ bv5 8) (_ bv0 56)) |symex::args::16|))

; find_symbols
(declare-fun |symex::args::17| () (_ BitVec 64))
; set_to true
(assert (= (concat (_ bv2 8) (_ bv0 56)) |symex::args::17|))

; find_symbols
(declare-fun |symex::args::18| () (_ BitVec 16))
; set_to true
(assert (= |mlk_fqmul::a_wrapper!0@1#1| |symex::args::18|))

; find_symbols
(declare-fun |symex::args::19| () (_ BitVec 16))
; set_to true
(assert (= |mlk_fqmul::b_wrapper!0@1#1| |symex::args::19|))

; find_symbols
(declare-fun |symex::args::20| () (_ BitVec 64))
; set_to true
(assert (= (concat (_ bv5 8) (_ bv0 56)) |symex::args::20|))

; find_symbols
(declare-fun |symex::args::21| () (_ BitVec 64))
; set_to true
(assert (= (concat (_ bv5 8) (_ bv0 56)) |symex::args::21|))

; find_symbols
(declare-fun |mlk_fqmul::b!0@1| () (_ BitVec 16))
; find_symbols
(declare-fun |symex::args::22| () (_ BitVec 64))
; set_to true
(assert (= (concat (_ bv6 8) (_ bv0 56)) |symex::args::22|))

; find_symbols
(declare-fun |symex::args::23| () (_ BitVec 64))
; set_to true
(assert (= (concat (_ bv5 8) (_ bv0 56)) |symex::args::23|))

; find_symbols
(declare-fun |mlk_fqmul::1::res!0@1| () (_ BitVec 16))
; find_symbols
(declare-fun |symex::args::24| () (_ BitVec 64))
; set_to true
(assert (= (concat (_ bv7 8) (_ bv0 56)) |symex::args::24|))

; find_symbols
(declare-fun |symex::args::25| () (_ BitVec 32))
; set_to true
(assert (= (bvmul ((_ sign_extend 16) |mlk_fqmul::a!0@1#1|) ((_ sign_extend 16) |mlk_fqmul::b!0@1#1|)) |symex::args::25|))

; find_symbols
(declare-fun |symex::args::26| () (_ BitVec 64))
; set_to true
(assert (= (concat (_ bv5 8) (_ bv0 56)) |symex::args::26|))

; find_symbols
(declare-fun |symex::args::27| () (_ BitVec 32))
; set_to true
(assert (= |mlk_montgomery_reduce::a!0@1#1| |symex::args::27|))

; find_symbols
(declare-fun |symex::args::28| () (_ BitVec 64))
; set_to true
(assert (= (concat (_ bv5 8) (_ bv0 56)) |symex::args::28|))

; find_symbols
(declare-fun |symex::args::29| () (_ BitVec 16))
; set_to true
(assert (= |mlk_montgomery_reduce::1::a_inverted!0@1#2| |symex::args::29|))

; find_symbols
(declare-fun |symex::args::30| () (_ BitVec 64))
; set_to true
(assert (= (concat (_ bv5 8) (_ bv0 56)) |symex::args::30|))

; find_symbols
(declare-fun |symex::args::31| () (_ BitVec 64))
; set_to true
(assert (= (concat (_ bv5 8) (_ bv0 56)) |symex::args::31|))

; find_symbols
(declare-fun |symex::args::32| () (_ BitVec 64))
; set_to true
(assert (= (concat (_ bv7 8) (_ bv0 56)) |symex::args::32|))

; find_symbols
(declare-fun |symex::args::33| () (_ BitVec 64))
; set_to true
(assert (= (concat (_ bv5 8) (_ bv0 56)) |symex::args::33|))

; find_symbols
(declare-fun |symex::args::34| () (_ BitVec 64))
; set_to true
(assert (= (concat (_ bv6 8) (_ bv0 56)) |symex::args::34|))

; find_symbols
(declare-fun |symex::args::35| () (_ BitVec 64))
; set_to true
(assert (= (concat (_ bv4 8) (_ bv0 56)) |symex::args::35|))

; find_symbols
(declare-fun |symex::args::36| () (_ BitVec 64))
; set_to true
(assert (= (concat (_ bv3 8) (_ bv0 56)) |symex::args::36|))

; find_symbols
(declare-fun |symex::args::37| () (_ BitVec 64))
; set_to true
(assert (= (concat (_ bv5 8) (_ bv0 56)) |symex::args::37|))

; convert
; Converting var_no 9 with expr ID of =>
(define-fun B9 () Bool (=> (and true B8) (or (bvuge |mlk_fqmul::1::1::_cbmc_idx10!0@1#1| (_ bv1 32)) (not (let ( (prod (bvmul ((_ sign_extend 64) ((_ zero_extend 32) |mlk_fqmul::1::1::_cbmc_idx10!0@1#1|)) ((_ sign_extend 64) (_ bv2 64))) )) (or (bvsge prod (_ bv9223372036854775808 128)) (bvslt prod (bvneg (_ bv9223372036854775808 128)))))))))

; find_symbols
(declare-fun |mlk_fqmul::1::1::_cbmc_idx10!0@1#0| () (_ BitVec 32))
; convert
; Converting var_no 10 with expr ID of =>
(define-fun B10 () Bool (=> (and true B8) (or (bvuge |mlk_fqmul::1::1::_cbmc_idx10!0@1#0| (_ bv1 32)) (not (bvuge ((_ zero_extend 1) (bvmul ((_ zero_extend 32) |mlk_fqmul::1::1::_cbmc_idx10!0@1#0|) (_ bv2 64))) (_ bv3 65))))))

; find_symbols
(declare-fun |mlk_fqmul::1::1::_cbmc_idx10!0@2#0| () (_ BitVec 32))
; convert
; Converting var_no 11 with expr ID of =>
(define-fun B11 () Bool (=> (and true B8) (or (bvuge |mlk_fqmul::1::1::_cbmc_idx10!0@2#0| (_ bv1 32)) (not (bvuge (bvadd ((_ zero_extend 1) (bvmul ((_ zero_extend 32) |mlk_fqmul::1::1::_cbmc_idx10!0@2#0|) (_ bv2 64))) (_ bv2 65)) (_ bv3 65))))))

; find_symbols
(declare-fun |mlk_fqmul::1::1::_cbmc_idx10!0@3#0| () (_ BitVec 32))
; convert
; Converting var_no 12 with expr ID of =>
(define-fun B12 () Bool (=> (and true B8) (or (bvuge |mlk_fqmul::1::1::_cbmc_idx10!0@3#0| (_ bv1 32)) (not (bvsge ((_ sign_extend 16) |mlk_fqmul::b!0@1#1|) (_ bv4294965632 32))) (not (let ( (prod (bvmul ((_ sign_extend 64) ((_ zero_extend 32) |mlk_fqmul::1::1::_cbmc_idx10!0@3#0|)) ((_ sign_extend 64) (_ bv2 64))) )) (or (bvsge prod (_ bv9223372036854775808 128)) (bvslt prod (bvneg (_ bv9223372036854775808 128)))))))))

; find_symbols
(declare-fun |mlk_fqmul::1::1::_cbmc_idx10!0@4#0| () (_ BitVec 32))
; convert
; Converting var_no 13 with expr ID of =>
(define-fun B13 () Bool (=> (and true B8) (or (bvuge |mlk_fqmul::1::1::_cbmc_idx10!0@4#0| (_ bv1 32)) (not (bvsge ((_ sign_extend 16) |mlk_fqmul::b!0@1#1|) (_ bv4294965632 32))) (not (bvuge ((_ zero_extend 1) (bvmul ((_ zero_extend 32) |mlk_fqmul::1::1::_cbmc_idx10!0@4#0|) (_ bv2 64))) (_ bv3 65))))))

; find_symbols
(declare-fun |mlk_fqmul::1::1::_cbmc_idx10!0@5#0| () (_ BitVec 32))
; convert
; Converting var_no 14 with expr ID of =>
(define-fun B14 () Bool (=> (and true B8) (or (bvuge |mlk_fqmul::1::1::_cbmc_idx10!0@5#0| (_ bv1 32)) (not (bvsge ((_ sign_extend 16) |mlk_fqmul::b!0@1#1|) (_ bv4294965632 32))) (not (bvuge (bvadd ((_ zero_extend 1) (bvmul ((_ zero_extend 32) |mlk_fqmul::1::1::_cbmc_idx10!0@5#0|) (_ bv2 64))) (_ bv2 65)) (_ bv3 65))))))

; find_symbols
(declare-fun |mlk_fqmul::1::1::_cbmc_idx10!0@6#0| () (_ BitVec 32))
; convert
; Converting var_no 15 with expr ID of =>
(define-fun B15 () Bool (=> (and true B8) (or (bvuge |mlk_fqmul::1::1::_cbmc_idx10!0@6#0| (_ bv1 32)) (and (bvsge ((_ sign_extend 16) |mlk_fqmul::b!0@1#1|) (_ bv4294965632 32)) (not (bvsge ((_ sign_extend 16) |mlk_fqmul::b!0@1#1|) (_ bv1665 32)))))))

; convert
; Converting var_no 16 with expr ID of =>
(define-fun B16 () Bool (=> (and true B8) (not (let ( (prod (bvmul ((_ sign_extend 32) ((_ sign_extend 16) |mlk_fqmul::a!0@1#1|)) ((_ sign_extend 32) ((_ sign_extend 16) |mlk_fqmul::b!0@1#1|))) )) (or (bvsge prod (_ bv2147483648 64)) (bvslt prod (bvneg (_ bv2147483648 64))))))))

; convert
; Converting var_no 17 with expr ID of =>
(define-fun B17 () Bool (=> (and true B8) (and (bvsge (bvand |mlk_cast_int32_to_uint16::x!0@1#1| (_ bv65535 32)) (_ bv0 32)) (not (bvsge (bvand |mlk_cast_int32_to_uint16::x!0@1#1| (_ bv65535 32)) (_ bv65536 32))))))

; convert
; Converting var_no 18 with expr ID of =>
(define-fun B18 () Bool (=> (and true B8) (not (let ((prod (bvmul ((_ zero_extend 32) ((_ zero_extend 16) |mlk_montgomery_reduce::1::a_reduced!0@1#2|)) ((_ zero_extend 32) (_ bv62209 32))))) (bvuge prod (_ bv4294967296 64))))))

; convert
; Converting var_no 19 with expr ID of =>
(define-fun B19 () Bool (=> (and true B8) (not (bvuge (bvand (bvmul ((_ zero_extend 16) |mlk_montgomery_reduce::1::a_reduced!0@1#2|) (_ bv62209 32)) (_ bv65535 32)) (_ bv65536 32)))))

; convert
; Converting var_no 20 with expr ID of =>
(define-fun B20 () Bool (=> (and true B8) (and (not (bvsge |mlk_montgomery_reduce::a!0@1#1| (_ bv2038398975 32))) (bvsge |mlk_montgomery_reduce::a!0@1#1| (_ bv2256568322 32)))))

; convert
; Converting var_no 21 with expr ID of =>
(define-fun B21 () Bool (=> (and true B8) (not (let ( (prod (bvmul ((_ sign_extend 32) ((_ sign_extend 16) |mlk_montgomery_reduce::1::t!0@1#2|)) ((_ sign_extend 32) (_ bv3329 32))) )) (or (bvsge prod (_ bv2147483648 64)) (bvslt prod (bvneg (_ bv2147483648 64))))))))

; convert
; Converting var_no 22 with expr ID of =>
(define-fun B22 () Bool (=> (and true B8) (not (let ((?sum (bvsub ((_ sign_extend 1) |mlk_montgomery_reduce::a!0@1#1|) ((_ sign_extend 1) (bvmul ((_ sign_extend 16) |mlk_montgomery_reduce::1::t!0@1#2|) (_ bv3329 32)))))) (not (= ((_ extract 32 32) ?sum) ((_ extract 31 31) ?sum)))))))

; convert
; Converting var_no 23 with expr ID of =>
(define-fun B23 () Bool (=> (and true B8) (and (bvsge |mlk_montgomery_reduce::1::r!0@1#3| (_ bv4294934528 32)) (not (bvsge |mlk_montgomery_reduce::1::r!0@1#3| (_ bv32768 32))))))

; convert
; Converting var_no 24 with expr ID of =>
(define-fun B24 () Bool (=> (and true B8) (or (bvuge |mlk_fqmul::1::2::_cbmc_idx11!0@1#1| (_ bv1 32)) (not (let ( (prod (bvmul ((_ sign_extend 64) ((_ zero_extend 32) |mlk_fqmul::1::2::_cbmc_idx11!0@1#1|)) ((_ sign_extend 64) (_ bv2 64))) )) (or (bvsge prod (_ bv9223372036854775808 128)) (bvslt prod (bvneg (_ bv9223372036854775808 128)))))))))

; find_symbols
(declare-fun |mlk_fqmul::1::2::_cbmc_idx11!0@1#0| () (_ BitVec 32))
; convert
; Converting var_no 25 with expr ID of =>
(define-fun B25 () Bool (=> (and true B8) (or (bvuge |mlk_fqmul::1::2::_cbmc_idx11!0@1#0| (_ bv1 32)) (not (bvuge ((_ zero_extend 1) (bvmul ((_ zero_extend 32) |mlk_fqmul::1::2::_cbmc_idx11!0@1#0|) (_ bv2 64))) (_ bv3 65))))))

; find_symbols
(declare-fun |mlk_fqmul::1::2::_cbmc_idx11!0@2#0| () (_ BitVec 32))
; convert
; Converting var_no 26 with expr ID of =>
(define-fun B26 () Bool (=> (and true B8) (or (bvuge |mlk_fqmul::1::2::_cbmc_idx11!0@2#0| (_ bv1 32)) (not (bvuge (bvadd ((_ zero_extend 1) (bvmul ((_ zero_extend 32) |mlk_fqmul::1::2::_cbmc_idx11!0@2#0|) (_ bv2 64))) (_ bv2 65)) (_ bv3 65))))))

; find_symbols
(declare-fun |mlk_fqmul::1::2::_cbmc_idx11!0@3#0| () (_ BitVec 32))
; convert
; Converting var_no 27 with expr ID of =>
(define-fun B27 () Bool (=> (and true B8) (or (bvuge |mlk_fqmul::1::2::_cbmc_idx11!0@3#0| (_ bv1 32)) (not (bvsge ((_ sign_extend 16) |mlk_fqmul::1::res!0@1#2|) (_ bv4294963968 32))) (not (let ( (prod (bvmul ((_ sign_extend 64) ((_ zero_extend 32) |mlk_fqmul::1::2::_cbmc_idx11!0@3#0|)) ((_ sign_extend 64) (_ bv2 64))) )) (or (bvsge prod (_ bv9223372036854775808 128)) (bvslt prod (bvneg (_ bv9223372036854775808 128)))))))))

; find_symbols
(declare-fun |mlk_fqmul::1::2::_cbmc_idx11!0@4#0| () (_ BitVec 32))
; convert
; Converting var_no 28 with expr ID of =>
(define-fun B28 () Bool (=> (and true B8) (or (bvuge |mlk_fqmul::1::2::_cbmc_idx11!0@4#0| (_ bv1 32)) (not (bvsge ((_ sign_extend 16) |mlk_fqmul::1::res!0@1#2|) (_ bv4294963968 32))) (not (bvuge ((_ zero_extend 1) (bvmul ((_ zero_extend 32) |mlk_fqmul::1::2::_cbmc_idx11!0@4#0|) (_ bv2 64))) (_ bv3 65))))))

; find_symbols
(declare-fun |mlk_fqmul::1::2::_cbmc_idx11!0@5#0| () (_ BitVec 32))
; convert
; Converting var_no 29 with expr ID of =>
(define-fun B29 () Bool (=> (and true B8) (or (bvuge |mlk_fqmul::1::2::_cbmc_idx11!0@5#0| (_ bv1 32)) (not (bvsge ((_ sign_extend 16) |mlk_fqmul::1::res!0@1#2|) (_ bv4294963968 32))) (not (bvuge (bvadd ((_ zero_extend 1) (bvmul ((_ zero_extend 32) |mlk_fqmul::1::2::_cbmc_idx11!0@5#0|) (_ bv2 64))) (_ bv2 65)) (_ bv3 65))))))

; find_symbols
(declare-fun |mlk_fqmul::1::2::_cbmc_idx11!0@6#0| () (_ BitVec 32))
; convert
; Converting var_no 30 with expr ID of =>
(define-fun B30 () Bool (=> (and true B8) (or (bvuge |mlk_fqmul::1::2::_cbmc_idx11!0@6#0| (_ bv1 32)) (and (bvsge ((_ sign_extend 16) |mlk_fqmul::1::res!0@1#2|) (_ bv4294963968 32)) (not (bvsge ((_ sign_extend 16) |mlk_fqmul::1::res!0@1#2|) (_ bv3329 32)))))))

; convert
; Converting var_no 31 with expr ID of =>
(define-fun B31 () Bool (=> (and true B8) (and (bvsge ((_ sign_extend 16) |mlk_fqmul::__contract_return_value!0@1#2|) (_ bv4294963968 32)) (not (bvsge ((_ sign_extend 16) |mlk_fqmul::__contract_return_value!0@1#2|) (_ bv3329 32))))))

; set_to true
(assert (or (not B9) (not B10) (not B11) (not B12) (not B13) (not B14) (not B15) (not B16) (not B17) (not B18) (not B19) (not B20) (not B21) (not B22) (not B23) (not B24) (not B25) (not B26) (not B27) (not B28) (not B29) (not B30) (not B31)))

; convert
; Converting var_no 32 with expr ID of not
(define-fun B32 () Bool (not B31))

; convert
; Converting var_no 33 with expr ID of not
(define-fun B33 () Bool (not B20))

; convert
; Converting var_no 34 with expr ID of not
(define-fun B34 () Bool (not B15))

; convert
; Converting var_no 35 with expr ID of not
(define-fun B35 () Bool (not B30))

; convert
; Converting var_no 36 with expr ID of not
(define-fun B36 () Bool (not B17))

; convert
; Converting var_no 37 with expr ID of not
(define-fun B37 () Bool (not B18))

; convert
; Converting var_no 38 with expr ID of not
(define-fun B38 () Bool (not B19))

; convert
; Converting var_no 39 with expr ID of not
(define-fun B39 () Bool (not B21))

; convert
; Converting var_no 40 with expr ID of not
(define-fun B40 () Bool (not B22))

; convert
; Converting var_no 41 with expr ID of not
(define-fun B41 () Bool (not B23))

; convert
; Converting var_no 42 with expr ID of not
(define-fun B42 () Bool (not B9))

; convert
; Converting var_no 43 with expr ID of not
(define-fun B43 () Bool (not B10))

; convert
; Converting var_no 44 with expr ID of not
(define-fun B44 () Bool (not B11))

; convert
; Converting var_no 45 with expr ID of not
(define-fun B45 () Bool (not B12))

; convert
; Converting var_no 46 with expr ID of not
(define-fun B46 () Bool (not B13))

; convert
; Converting var_no 47 with expr ID of not
(define-fun B47 () Bool (not B14))

; convert
; Converting var_no 48 with expr ID of not
(define-fun B48 () Bool (not B16))

; convert
; Converting var_no 49 with expr ID of not
(define-fun B49 () Bool (not B24))

; convert
; Converting var_no 50 with expr ID of not
(define-fun B50 () Bool (not B25))

; convert
; Converting var_no 51 with expr ID of not
(define-fun B51 () Bool (not B26))

; convert
; Converting var_no 52 with expr ID of not
(define-fun B52 () Bool (not B27))

; convert
; Converting var_no 53 with expr ID of not
(define-fun B53 () Bool (not B28))

; convert
; Converting var_no 54 with expr ID of not
(define-fun B54 () Bool (not B29))

; set_to true
(assert (or B32 B33 B34 B35 B36 B37 B38 B39 B40 B41 B42 B43 B44 B45 B46 B47 B48 B49 B50 B51 B52 B53 B54))

(check-sat)


(exit)
; end of SMT2 file
